# Solution for model BargeScheduling
# Objective value = 1438
f_ck[0,0] 1
f_ck[0,1] 0
f_ck[0,2] 0
f_ck[1,0] 1
f_ck[1,1] 0
f_ck[1,2] 0
f_ck[2,0] 1
f_ck[2,1] 0
f_ck[2,2] 0
f_ck[3,0] 1
f_ck[3,1] 0
f_ck[3,2] 0
f_ck[4,0] 1
f_ck[4,1] 0
f_ck[4,2] 0
f_ck[5,0] 1
f_ck[5,1] 0
f_ck[5,2] 0
f_ck[6,0] 1
f_ck[6,1] 0
f_ck[6,2] 0
f_ck[7,0] 1
f_ck[7,1] 0
f_ck[7,2] 0
x_ijk[0,1,0] 0
x_ijk[0,1,1] 0
x_ijk[0,2,0] 1
x_ijk[0,2,1] 0
x_ijk[0,3,0] 0
x_ijk[0,3,1] 0
x_ijk[1,0,0] 0
x_ijk[1,0,1] 0
x_ijk[1,2,0] 0
x_ijk[1,2,1] 0
x_ijk[1,3,0] 1
x_ijk[1,3,1] 0
x_ijk[2,0,0] 0
x_ijk[2,0,1] 0
x_ijk[2,1,0] 1
x_ijk[2,1,1] 0
x_ijk[2,3,0] 0
x_ijk[2,3,1] 0
x_ijk[3,0,0] 1
x_ijk[3,0,1] 0
x_ijk[3,1,0] 0
x_ijk[3,1,1] 0
x_ijk[3,2,0] 0
x_ijk[3,2,1] 0
p_jk[0,0] 0
p_jk[0,1] 0
p_jk[1,0] 3
p_jk[1,1] 0
p_jk[2,0] 1
p_jk[2,1] 0
p_jk[3,0] 1
p_jk[3,1] 0
d_jk[0,0] 0
d_jk[0,1] 0
d_jk[1,0] 1
d_jk[1,1] 0
d_jk[2,0] 2
d_jk[2,1] 0
d_jk[3,0] 3
d_jk[3,1] 0
y_ijk[0,0,0] 0
y_ijk[0,0,1] 0
y_ijk[0,1,0] 0
y_ijk[0,1,1] 0
y_ijk[0,2,0] 1
y_ijk[0,2,1] 0
y_ijk[0,3,0] 0
y_ijk[0,3,1] 0
y_ijk[1,0,0] 0
y_ijk[1,0,1] 0
y_ijk[1,1,0] 0
y_ijk[1,1,1] 0
y_ijk[1,2,0] 0
y_ijk[1,2,1] 0
y_ijk[1,3,0] 5
y_ijk[1,3,1] 0
y_ijk[2,0,0] 0
y_ijk[2,0,1] 0
y_ijk[2,1,0] 2
y_ijk[2,1,1] 0
y_ijk[2,2,0] 0
y_ijk[2,2,1] 0
y_ijk[2,3,0] 0
y_ijk[2,3,1] 0
y_ijk[3,0,0] 6
y_ijk[3,0,1] 0
y_ijk[3,1,0] 0
y_ijk[3,1,1] 0
y_ijk[3,2,0] 0
y_ijk[3,2,1] 0
y_ijk[3,3,0] 0
y_ijk[3,3,1] 0
z_ijk[0,0,0] 0
z_ijk[0,0,1] 0
z_ijk[0,1,0] 0
z_ijk[0,1,1] 0
z_ijk[0,2,0] 11
z_ijk[0,2,1] 0
z_ijk[0,3,0] 0
z_ijk[0,3,1] 0
z_ijk[1,0,0] 0
z_ijk[1,0,1] 0
z_ijk[1,1,0] 0
z_ijk[1,1,1] 0
z_ijk[1,2,0] 0
z_ijk[1,2,1] 0
z_ijk[1,3,0] 8
z_ijk[1,3,1] 0
z_ijk[2,0,0] 0
z_ijk[2,0,1] 0
z_ijk[2,1,0] 9
z_ijk[2,1,1] 0
z_ijk[2,2,0] 0
z_ijk[2,2,1] 0
z_ijk[2,3,0] 0
z_ijk[2,3,1] 0
z_ijk[3,0,0] 5
z_ijk[3,0,1] 0
z_ijk[3,1,0] 0
z_ijk[3,1,1] 0
z_ijk[3,2,0] 0
z_ijk[3,2,1] 0
z_ijk[3,3,0] 0
z_ijk[3,3,1] 0
t_jk[0,0] 38
t_jk[0,1] 0
t_jk[1,0] 5.7333333333333336e+01
t_jk[1,1] 0
t_jk[2,0] 49
t_jk[2,1] 0
t_jk[3,0] 6.7833333333333329e+01
t_jk[3,1] 0
